language Essence 1.3

letting class be function(1 --> 1, 2 --> 1, 3 --> 1)
letting deck_length be 21
letting deck_width be 98
letting length be function(1 --> 8, 2 --> 4, 3 --> 8)
letting n_classes be 1
letting n_containers be 3
letting separation be function()
letting width be function(1 --> 82, 2 --> 91, 3 --> 7)
